(set-logic SLIA)
(constraint (= (f "AIX 5.1") "5.1"))
(constraint (= (f "VMware ESX Server 3.5.0 build-110268") "3.5"))
(constraint (= (f "Linux Linux 2.6 Linux") "2.6"))
(constraint (= (f "Red Hat Enterprise AS 4 <2.6-78.0.13.ELlargesmp>") "2.6"))
(constraint (= (f "Microsoft <R> Windows <R> 2000 Advanced Server 1.0") "1.0"))
(constraint (= (f "Microsoft Windows XP Win2008R2 6.1.7601") "6.1"))
(check-synth)
(synth-fun f ((_arg_0 String)) String ((Start String (ntString)) (ntString String ((Str A) (str.++ ntString A))) (A String ((Str ConstString) (SubStr X P P))) (P Int ((Int ntInt) (Pos X Pattern ntInt Direction))) (Pattern String ((Str ConstString) "ProperCase" "CAPS" "lowercase" "Digits" "Alphabets" "Alphanumeric" "WhiteSpace" "ProperCaseWSpaces" "CAPSWSpaces" "lowercaseSpaces" "AlphabetsWSpaces")) (X String (_arg_0)) (ConstString String (_arg_0 "" " " ".")) (Direction Int (0 1)) (ntInt Int (-5 -4 -3 -2 -1 0 1 2 3 4 5))))
